sat
(:max-memory         18.05
 :memory             17.93
 :nlsat-propagations 7
 :nlsat-stages       4
 :num-allocs         5512
 :rlimit-count       1378
 :time               0.00
 :total-time         0.01)
